
%FILE DATA:	Soccer Computational Problem for MiniZinc Models	%
%AUTHOR:	Jack Wall	%
%CONTACT:  	116397063@umail.ucc.ie			%
%LAST UPDATE:	03/03/2020, 12:07:43						%
%DESCRIPTION: 	82 games played with 28 games left				%


n=11; %number of teams

%Games to play
games=[|8,1|8,7|1,7|1,3|11,7|10,1|7,5|1,10|5,1|9,10|3,7|9,7|7,6|5,8|11,1|2,8|2,5|11,4|7,4|11,6|3,1|9,3|11,8|8,4|7,8|10,3|3,10|11,3|];

%Initial points
iPoints=[18,29,20,17,25,26,6,15,29,23,19];

%POSITION CONSTRAINTS
% [|teamID, operator, position|...]
% operators index:
%  1 for =  operator
%  2 for >  operator
%  3 for >= operator
%  4 for <  operator
%  5 for <= operator
positionConstraints=[|3,5,1|11,2,1|];